c ---- [ banner ] ------------------------------------------------------------
c
c Kissat SAT Solver
c 
c Copyright (c) 2021-2023 Armin Biere University of Freiburg
c Copyright (c) 2019-2021 Armin Biere Johannes Kepler University Linz
c 
c Version 3.1.1 unknown
c gcc (Ubuntu 9.4.0-1ubuntu1~20.04.2) 9.4.0 -W -Wall -O3 -DNDEBUG
c Mon Feb 26 18:18:52 CET 2024 Linux OptiPlex-7080 5.15.0-88-generic x86_64
c
c ---- [ parsing ] -----------------------------------------------------------
c
c opened and reading DIMACS file:
c
c   /home/oliveras/SAT-comp-2023//431bfb466be51ecd86b321b5cbce6d3c-mrpp_8x8#22_10.cnf
c
c parsed 'p cnf 8918 72538' header
c closing input after reading 1355013 bytes (1 MB)
c finished parsing after 0.03 seconds
c
c ---- [ options ] -----------------------------------------------------------
c
c --seed=1                         (different from default '0')
c
c ---- [ solving ] -----------------------------------------------------------
c
c  seconds switched conflicts    irredundant variables
c         MB reductions redundant       trail    remaining
c          level restarts    binary        glue
c
c *  0.03  5 0 0 0  0   0   0 29511 42447 0% 0 7947 89%
c {  0.03  5 0 0 0  0   0   0 29511 42447 0% 0 7947 89%
c i  0.03  5 5 0 0  0   2   0 29512 42447 1% 0 7946 89%
c i  0.03  5 4 0 0  0   3   0 29512 42447 0% 0 7945 89%
c i  0.03  5 3 0 0  0   6   0 29513 42445 0% 0 7942 89%
c i  0.03  5 4 0 0  0  12   0 29514 42441 0% 0 7941 89%
c i  0.03  5 4 0 0  0  15   0 29515 42439 0% 0 7940 89%
c i  0.03  5 3 0 0  0  16   0 29515 42439 0% 0 7937 89%
c i  0.03  5 3 0 0  0  22   0 29516 42435 0% 0 7936 89%
c i  0.03  5 3 0 0  0  23   0 29516 42435 0% 0 7935 89%
c i  0.03  5 3 0 0  0  26   0 29517 42433 0% 0 7932 89%
c i  0.03  5 3 0 0  0  27   0 29517 42433 0% 0 7931 89%
c i  0.03  5 4 0 0  0  33   0 29518 42429 0% 0 7930 89%
c i  0.03  5 4 0 0  0  36   0 29519 42427 0% 0 7928 89%
c i  0.03  5 4 0 0  0  37   0 29519 42427 0% 0 7918 89%
c i  0.03  5 4 0 0  0  38   0 29519 42427 1% 0 7917 89%
c i  0.03  5 6 0 0  0  40   0 29520 42427 1% 0 7916 89%
c i  0.03  5 7 0 0  1  43   0 29522 42427 1% 0 7915 89%
c i  0.03  5 8 0 0  2  44   0 29522 42427 1% 0 7914 89%
c i  0.03  5 9 0 0  5  54   4 29523 42423 1% 1 7913 89%
c
c  seconds switched conflicts    irredundant variables
c         MB reductions redundant       trail    remaining
c          level restarts    binary        glue
c
c i  0.03  5 9 0 0  7  57   4 29524 42421 1% 1 7912 89%
c i  0.03  5 8 0 0  9  63   4 29525 42417 1% 1 7911 89%
c i  0.03  5 10 0 0 13  67   4 29528 42417 1% 1 7910 89%
c i  0.03  5 11 0 0 19  80   4 29534 42411 2% 1 7909 89%
c i  0.03  5 12 0 0 28 103   8 29541 42401 2% 1 7908 89%
c i  0.03  5 13 0 0 30 105   9 29541 42401 2% 1 7907 89%
c i  0.03  5 12 0 0 31 106   9 29541 42401 2% 1 7906 89%
c i  0.03  5 12 0 0 35 123   9 29542 42390 2% 1 7905 89%
c i  0.03  5 11 0 0 36 126   9 29543 42388 2% 1 7902 89%
c i  0.03  5 11 0 0 37 127   9 29543 42388 2% 1 7901 89%
c i  0.03  5 12 0 0 43 135  11 29547 42386 2% 1 7900 89%
c i  0.03  5 13 0 0 48 144  12 29550 42382 2% 1 7899 89%
c i  0.03  5 13 0 0 52 153  12 29552 42378 2% 1 7898 89%
c i  0.03  5 13 0 0 54 159  12 29553 42374 2% 1 7897 89%
c i  0.04  5 13 0 0 56 165  12 29554 42370 2% 1 7896 89%
c i  0.04  5 13 0 0 57 166  12 29554 42370 2% 1 7895 89%
c i  0.04  5 14 0 0 59 171  13 29555 42369 2% 1 7894 89%
c i  0.04  5 14 0 0 59 172  13 29555 42369 2% 1 7893 88%
c i  0.04  5 13 0 0 59 178  13 29558 42363 2% 1 7890 88%
c i  0.04  5 18 0 0 79 216  24 29572 42351 3% 1 7889 88%
c
c  seconds  switched conflicts     irredundant variables
c         MB reductions  redundant        trail    remaining
c          level restarts      binary        glue
c
c i  0.04  5 25 0 0 115 299  52 29602 42330 4% 1 7888 88%
c i  0.04  5 25 0 0 115 300  52 29602 42330 4% 1 7887 88%
c i  0.04  5 25 0 0 117 303  52 29602 42329 4% 1 7886 88%
c i  0.04  5 25 0 0 119 311  56 29604 42327 4% 1 7885 88%
c i  0.04  5 27 0 0 126 327  64 29611 42327 4% 1 7884 88%
c i  0.04  5 27 0 0 131 342  68 29615 42322 4% 2 7883 88%
c i  0.04  5 35 0 0 184 501 125 29647 42272 5% 2 7882 88%
c i  0.05  6 36 0 0 186 506 125 29651 42272 5% 2 7881 88%
c i  0.05  6 36 0 0 187 507 125 29651 42272 5% 2 7880 88%
c i  0.05  6 44 0 0 203 550 145 29664 42266 6% 2 7879 88%
c i  0.05  6 50 0 0 221 592 159 29678 42256 6% 2 7877 88%
c i  0.05  6 53 0 0 232 626 174 29684 42246 6% 2 7876 88%
c i  0.05  6 53 0 0 233 628 175 29684 42246 6% 2 7875 88%
c i  0.05  6 53 0 0 233 629 175 29684 42246 6% 2 7874 88%
c i  0.05  6 54 0 0 241 654 185 29690 42238 7% 2 7873 88%
c i  0.05  6 61 0 0 264 724 215 29711 42226 7% 2 7872 88%
c i  0.06  6 69 0 0 295 853 264 29740 42188 8% 2 7871 88%
c i  0.06  6 69 0 0 305 911 287 29749 42169 8% 2 7858 88%
c i  0.06  6 68 0 0 325 959 310 29764 42161 8% 2 7857 88%
c -  0.06  6 68 0 1 343 1000 330 26298 42161 8% 2 7857 88%
c
c  seconds  switched conflicts      irredundant variables
c         MB reductions   redundant        trail    remaining
c          level restarts       binary        glue
c
c }  0.06  6 68 1 1 343 1000 330 26298 42161 8% 2 7857 88%
c [  0.06  6 0 1 1 343 1000 330 26298 42161 0% 0 7857 88%
c B  0.06  6 116 1 1 343 1001 330 26299 42161 11% 1 7857 88%
c i  0.07  6 320 1 1 343 1085 358 26330 42140 26% 2 7856 88%
c i  0.08  6 219 1 1 343 1892 790 26496 42009 23% 3 7855 88%
c -  0.08  6 223 1 2 343 2000 803 26504 41992 24% 3 7855 88%
c W  0.09  6 225 1 2 343 2004 804 26505 36334 24% 3 7855 88%
c i  0.10  6 277 1 2 343 2109 846 26528 36323 27% 3 7854 88%
c i  0.10  6 280 1 2 343 2112 846 26529 36321 27% 3 7853 88%
c i  0.10  6 281 1 2 343 2113 846 26529 36321 27% 3 7852 88%
c i  0.10  6 287 1 2 343 2118 846 26532 36321 28% 3 7851 88%
c i  0.10  6 290 1 2 343 2122 846 26534 36319 28% 3 7844 88%
c i  0.10  6 291 1 2 343 2123 846 26534 36319 28% 3 7842 88%
c i  0.10  6 292 1 2 343 2124 846 26534 36319 28% 3 7841 88%
c i  0.10  6 297 1 2 343 2132 846 26535 36316 28% 3 7840 88%
c i  0.10  6 307 1 2 343 2143 852 26537 36316 29% 3 7831 88%
c i  0.10  6 308 1 2 343 2144 852 26537 36316 29% 3 7830 88%
c i  0.10  6 309 1 2 343 2145 852 26537 36316 29% 3 7825 88%
c i  0.10  6 312 1 2 343 2151 852 26539 36315 29% 3 7812 88%
c i  0.10  6 314 1 2 343 2156 852 26540 36311 29% 3 7811 88%
c
c  seconds   switched conflicts      irredundant variables
c         MB  reductions   redundant         trail    remaining
c           level restarts       binary         glue
c
c i  0.10  6 315 1 2 343 2158 852 26541 36311 29% 3 7810 88%
c i  0.10  6 319 1 2 343 2165 852 26544 36309 30% 3 7809 88%
c i  0.10  6 323 1 2 343 2169 853 26546 36309 30% 3 7808 88%
c i  0.10  6 324 1 2 343 2170 853 26546 36309 30% 3 7807 88%
c i  0.10  6 328 1 2 343 2174 854 26546 36308 30% 3 7806 88%
c i  0.10  6 337 1 2 343 2185 857 26546 36305 30% 3 7805 88%
c i  0.10  6 340 1 2 343 2187 858 26546 36305 31% 3 7804 87%
c i  0.10  6 356 1 2 343 2205 867 26551 36302 31% 3 7803 87%
c i  0.10  6 357 1 2 343 2207 867 26552 36300 31% 3 7802 87%
c i  0.10  6 368 1 2 343 2228 876 26556 36295 32% 3 7801 87%
c d  0.10  6 421 1 2 343 2360 938 28338 34267 36% 3 7762 87%
c b  0.11  6 421 1 2 343 2360 938 28338 34267 36% 3 7718 87%
c u  0.11  6 421 1 2 343 2360 917 28359 34267 36% 3 7718 87%
c v  0.12  6 421 1 2 343 2360 915 28361 34267 36% 3 7718 87%
c w  0.15  7 421 1 2 343 2360 917 28427 34036 36% 3 7698 86%
c =  0.18  7 421 1 2 343 2360 917 28827 31386 36% 3 7364 83%
c d  0.19  7 421 1 2 343 2360 911 28852 30327 36% 3 7345 82%
c t  0.19  7 421 1 2 343 2360 911 28263 30327 36% 3 7338 82%
c i  0.19  7 421 1 2 343 2360 911 28263 30327 36% 3 7338 82%
c i  0.20  7 401 1 2 344 2505 989 28285 30305 35% 3 7337 82%
c
c  seconds   switched conflicts       irredundant variables
c         MB  reductions   redundant          trail    remaining
c           level restarts        binary         glue
c
c i  0.20  7 402 1 2 344 2587 1030 28303 30300 35% 3 7336 82%
c i  0.20  7 362 1 2 344 2830 1165 28335 30259 32% 3 7335 82%
c ]  0.21  7 301 2 2 344 3288 1497 28375 30227 29% 3 7335 82%
c {  0.21  7 68 2 2 344 3288 1497 28375 30227 8% 2 7335 82%
c i  0.21  7 68 2 2 345 3291 1498 28376 30227 8% 2 7334 82%
c i  0.21  7 68 2 2 345 3292 1498 28376 30227 8% 2 7333 82%
c i  0.21  7 68 2 2 345 3295 1498 28378 30227 8% 2 7332 82%
c i  0.21  7 68 2 2 345 3298 1499 28379 30227 8% 2 7331 82%
c i  0.21  7 66 2 2 345 3335 1501 28391 30211 8% 2 7330 82%
c -  0.22  7 64 2 3 345 3415 1334 26841 30035 8% 2 7330 82%
c i  0.22  7 63 2 3 345 3419 1335 26841 30034 8% 2 7325 82%
c i  0.22  7 60 2 3 345 3523 1368 26856 29991 8% 2 7324 82%
c i  0.22  7 55 2 3 358 3708 1413 26883 29913 8% 2 7323 82%
c i  0.22  7 54 2 3 360 3729 1425 26890 29913 8% 2 7321 82%
c i  0.22  7 53 2 3 366 3760 1441 26901 29912 7% 2 7320 82%
c i  0.22  7 52 2 3 369 3772 1449 26904 29912 7% 2 7318 82%
c i  0.22  7 51 2 3 376 3814 1458 26908 29891 7% 2 7317 82%
c i  0.22  7 51 2 3 376 3819 1458 26912 29891 7% 2 7316 82%
c i  0.22  7 51 2 3 376 3822 1458 26913 29889 7% 2 7315 82%
c i  0.22  7 50 2 3 393 3897 1486 26926 29865 7% 2 7314 82%
c
c  seconds  switched conflicts       irredundant variables
c         MB reductions   redundant         trail    remaining
c          level restarts        binary        glue
c
c i  0.22  7 48 2 3 406 3942 1520 26933 29865 7% 2 7313 82%
c i  0.22  7 48 2 3 412 3955 1530 26935 29865 7% 2 7311 82%
c i  0.23  7 44 2 3 464 4109 1604 26962 29829 7% 2 7309 82%
c }  0.23  7 42 3 3 469 4289 1657 26991 29756 7% 2 7309 82%
c [  0.23  7 301 3 3 469 4289 1657 26991 29756 29% 3 7309 82%
c I  0.23  7 301 3 3 469 4289 1657 26991 29756 29% 3 7309 82%
c i  0.23  7 301 3 3 469 4293 1658 26993 29756 29% 3 7267 81%
c i  0.23  7 296 3 3 469 4354 1696 26995 29749 28% 3 7265 81%
c i  0.23  7 296 3 3 469 4362 1696 26997 29747 28% 3 7264 81%
c i  0.23  7 297 3 3 469 4410 1713 27005 29730 28% 3 7263 81%
c d  0.24  7 301 3 3 469 4634 1658 27052 29340 30% 3 7222 81%
c b  0.24  7 301 3 3 469 4634 1658 27052 29340 30% 3 7206 81%
c u  0.25  7 301 3 3 469 4634 1588 27100 29340 30% 3 7197 81%
c v  0.26  7 301 3 3 469 4634 1477 27152 29340 30% 3 7032 79%
c w  0.28  7 301 3 3 469 4634 1500 27392 27787 30% 3 6761 76%
c =  0.32  7 301 3 3 469 4634 1500 27710 25483 30% 3 6529 73%
c d  0.32  7 301 3 3 469 4634 1024 27799 24915 30% 3 6524 73%
c t  0.32  7 301 3 3 469 4634 1024 27204 24915 30% 3 6512 73%
c b  0.33  7 301 3 3 469 4634 1024 27204 24915 30% 3 6503 73%
c i  0.33  7 301 3 3 469 4634 1024 27204 24915 30% 3 6503 73%
c
c  seconds   switched conflicts       irredundant variables
c         MB  reductions   redundant          trail    remaining
c           level restarts        binary         glue
c
c i  0.33  7 297 3 3 469 4709 1067 27212 24910 30% 3 6461 72%
c i  0.33  7 296 3 3 469 4735 1086 27216 24909 29% 3 6458 72%
c i  0.33  7 295 3 3 469 4755 1091 27217 24898 29% 3 6455 72%
c i  0.33  7 295 3 3 469 4756 1091 27217 24898 29% 3 6454 72%
c i  0.33  7 295 3 3 469 4757 1091 27217 24898 29% 3 6453 72%
c i  0.33  7 295 3 3 469 4765 1091 27221 24895 29% 3 6452 72%
c i  0.33  7 295 3 3 469 4766 1091 27221 24895 29% 3 6451 72%
c -  0.34  7 279 3 4 469 5147 1106 23199 24497 29% 3 6449 72%
c i  0.34  7 279 3 4 469 5148 1106 23199 24497 29% 3 6446 72%
c i  0.34  7 273 3 4 469 5295 1212 23211 24486 29% 3 6445 72%
c ]  0.34  7 273 4 4 469 5351 1238 23219 24480 29% 3 6445 72%
c {  0.34  7 42 4 4 469 5351 1238 23219 24480 7% 2 6445 72%
c i  0.36  7 56 4 4 615 5802 1492 23276 24405 9% 2 6441 72%
c i  0.37  7 67 4 4 705 6072 1614 23311 24334 10% 2 6440 72%
c i  0.37  7 67 4 4 705 6073 1614 23311 24334 10% 2 6398 72%
c i  0.37  7 66 4 4 746 6182 1684 23322 24318 10% 2 6397 72%
c i  0.38  7 66 4 4 766 6229 1712 23331 24315 10% 2 6396 72%
c i  0.38  7 66 4 4 766 6233 1712 23333 24313 10% 2 6375 71%
c i  0.39  7 73 4 4 829 6616 1930 23406 24256 11% 3 6374 71%
c i  0.40  7 69 4 4 970 7089 2145 23456 24126 11% 3 6373 71%
c
c  seconds  switched conflicts       irredundant variables
c         MB reductions   redundant          trail    remaining
c          level restarts        binary         glue
c
c -  0.40  7 69 4 5 991 7148 1938 23047 24116 11% 3 6373 71%
c i  0.41  7 68 4 5 1040 7334 2056 23057 24088 11% 3 6372 71%
c }  0.42  7 67 5 5 1139 7703 2305 23087 24046 11% 3 6372 71%
c [  0.42  7 273 5 5 1139 7703 2305 23087 24046 29% 3 6372 71%
c i  0.42  7 273 5 5 1139 7707 2306 23088 24045 29% 3 6370 71%
c i  0.42  7 273 5 5 1139 7713 2306 23089 24041 29% 3 6369 71%
c i  0.42  7 272 5 5 1139 7714 2306 23089 24041 29% 3 6367 71%
c i  0.42  7 272 5 5 1139 7715 2306 23089 24041 29% 3 6365 71%
c i  0.42  7 271 5 5 1139 7740 2314 23093 24038 29% 3 6363 71%
c i  0.42  7 271 5 5 1139 7750 2316 23096 24035 29% 3 6357 71%
c i  0.42  7 270 5 5 1139 7751 2316 23096 24035 29% 3 6355 71%
c B  0.43  7 253 5 5 1139 8060 2589 23103 24028 28% 4 6355 71%
c i  0.43  7 253 5 5 1139 8064 2592 23103 24028 28% 4 6354 71%
c i  0.43  7 251 5 5 1139 8096 2616 23103 24027 28% 4 6353 71%
c i  0.44  7 230 5 5 1139 8526 2953 23132 24004 27% 4 6352 71%
c i  0.45  7 222 5 5 1139 8668 3084 23135 24004 27% 4 6350 71%
c i  0.45  7 213 5 5 1139 8823 3222 23137 24003 26% 4 6349 71%
c i  0.45  7 209 5 5 1140 8905 3290 23142 24003 25% 4 6348 71%
c i  0.45  7 209 5 5 1140 8908 3291 23143 24003 25% 4 6347 71%
c i  0.45  7 209 5 5 1140 8914 3294 23145 24003 25% 4 6299 71%
c
c  seconds   switched  conflicts       irredundant variables
c         MB  reductions    redundant          trail    remaining
c           level  restarts        binary         glue
c
c i  0.45  7 209 5 5 1140 8915 3294 23145 24003 25% 4 6297 71%
c ]  0.45  7 209 5 5 1140 8917 3294 23145 24003 25% 4 6146 69%
c 0  0.45  7 67 5 5 1140 8917 3294 23145 24003 11% 3 6146 69%
c
c ---- [ result ] ------------------------------------------------------------
c
s UNSATISFIABLE
c
c ---- [ profiling ] ---------------------------------------------------------
c
c           0.23   50.76 %  search
c           0.19   42.34 %  simplify
c           0.18   40.49 %  probe
c           0.13   28.56 %  focused
c           0.10   22.15 %  stable
c           0.08   18.14 %  vivify
c           0.06   14.36 %  sweep
c           0.03    6.77 %  parse
c           0.02    4.04 %  substitute
c           0.01    2.70 %  reduce
c           0.01    2.05 %  backbone
c           0.01    1.89 %  transitive
c           0.01    1.84 %  walking
c           0.00    0.43 %  warmup
c =============================================
c           0.45  100.00 %  total
c
c ---- [ statistics ] --------------------------------------------------------
c
c chronological:                          460                5 %  conflicts
c conflicts:                             8917            19683.20 per second
c decisions:                           128052               14.36 per conflict
c jumped_reasons:                      550314               24 %  propagations
c propagations:                       2301323          5079892    per second
c queue_decisions:                      78986               62 %  decision
c random_decisions:                     10819                8 %  decision
c random_sequences:                         8             1115    interval
c reductions:                               5             1783    interval
c rephased:                                 4             2229    interval
c restarts:                              1140                7.82 interval
c score_decisions:                      38247               30 %  decision
c substituted:                            414                5 %  variables
c switched:                                 5             1783    interval
c vivified:                               543                3 %  checks
c vivify_checks:                        16396             8198    per vivify
c vivify_units:                            48                1 %  variables
c walk_improved:                            1              100 %  walks
c walks:                                    1             8917    interval
c
c ---- [ resources ] ---------------------------------------------------------
c
c maximum-resident-set-size:          7303168 bytes          7 MB
c process-time:                                              0.45 seconds
c
c ---- [ shutting down ] -----------------------------------------------------
c
c exit 20
